Results/Experiment 1 Results/Existing Benchmark/RES_100/i-100-75-10.txt
solutions: 0 nodes: 2  modelTime: 117  solveTime: 25  totalTime: 151  modelSize: 8403  readTime: 9 matchingSize: 0
