Results/Experiment 2 Results/Existing Benchmark/i-100-75-10.lp
clingo version 5.4.0
Reading from tempSRTISolver.lp ...
Solving...
UNSATISFIABLE

Models       : 0
Calls        : 1
Time         : 32.946s (Solving: 5.12s 1st Model: 0.00s Unsat: 5.12s)
CPU Time     : 32.895s
